1 1 2 0
1 -1 -3 0
1 1 4 0
1 1 -5 0
1 1 -6 0
1 -7 -8 0
1 7 -2 0
1 7 -6 0
1 -9 10 0
1 -9 11 0
1 -9 -12 0
1 9 -2 0
1 -9 3 0
1 9 13 0
1 9 14 0
1 -9 15 0
1 9 -6 0
1 -12 -10 0
1 -12 11 0
1 -12 16 0
1 12 2 0
1 -12 -3 0
1 12 -13 0
1 12 14 0
1 12 -9 0
1 12 4 0
1 -12 -6 0
1 -3 17 0
1 -3 18 0
1 -3 7 0
1 3 -19 0
1 3 20 0
1 3 -21 0
1 -3 9 0
1 3 1 0
1 -6 22 0
1 6 -17 0
1 -6 18 0
1 -6 12 0
1 -6 7 0
1 6 -3 0
1 -6 23 0
1 6 20 0
1 6 -21 0
1 6 9 0
1 6 1 0
1 2 -24 0
1 2 25 0
1 -2 26 0
1 -2 12 0
1 2 27 0
1 -2 23 0
1 2 28 0
1 2 -9 0
1 -2 1 0
1 -4 -25 0
1 4 -26 0
1 4 12 0
1 4 7 0
1 4 -2 0
1 4 28 0
1 -4 29 0
1 4 1 0
1 -4 -30 0
1 -21 -11 0
1 -21 -18 0
1 -21 -3 0
1 -21 13 0
1 21 -14 0
1 -21 29 0
1 21 6 0
1 -18 -11 0
1 -18 26 0
1 -18 3 0
1 -18 -13 0
1 -18 -21 0
1 20 -10 0
1 -20 11 0
1 20 -17 0
1 -20 -31 0
1 20 -32 0
1 -20 28 0
1 20 33 0
1 17 10 0
1 17 11 0
1 17 -31 0
1 -17 25 0
1 -17 -34 0
1 -17 -3 0
1 -17 13 0
1 17 -14 0
1 17 -20 0
1 -17 32 0
1 -17 33 0
1 17 -6 0
1 -14 35 0
1 -14 11 0
1 14 -17 0
1 -14 -18 0
1 -14 -12 0
1 -14 36 0
1 -14 37 0
1 14 38 0
1 -14 39 0
1 -14 -21 0
1 14 9 0
1 -14 -40 0
1 11 -41 0
1 11 -42 0
1 -11 17 0
1 -11 -18 0
1 11 -12 0
1 -11 36 0
1 -11 38 0
1 11 -20 0
1 11 -21 0
1 11 -9 0
1 -11 -40 0
1 13 -10 0
1 13 43 0
1 13 -24 0
1 13 12 0
1 13 36 0
1 -13 44 0
1 13 23 0
1 -13 21 0
1 -13 -9 0
1 -13 -40 0
1 10 -43 0
1 10 -45 0
1 10 24 0
1 -10 -17 0
1 10 -36 0
1 10 -13 0
1 10 -44 0
1 -10 23 0
1 10 -21 0
1 -10 9 0
1 10 40 0
1 -38 41 0
1 38 -11 0
1 38 31 0
1 38 -34 0
1 -38 -14 0
1 38 -33 0
1 -41 14 0
1 41 32 0
1 -41 -33 0
1 37 -35 0
1 -37 11 0
1 37 -31 0
1 37 34 0
1 -37 44 0
1 37 -32 0
1 35 -43 0
1 -35 -31 0
1 -35 34 0
1 35 37 0
1 -35 -32 0
1 33 35 0
1 -33 41 0
1 -33 17 0
1 33 -34 0
1 -33 37 0
1 -33 38 0
1 33 -20 0
1 33 46 0
1 -33 -47 0
1 -34 35 0
1 -34 -41 0
1 -34 -48 0
1 34 49 0
1 -34 -37 0
1 34 -38 0
1 -34 -20 0
1 -34 47 0
1 32 41 0
1 32 17 0
1 -32 -31 0
1 32 49 0
1 -32 -50 0
1 32 36 0
1 32 -37 0
1 -32 20 0
1 32 51 0
1 -32 -47 0
1 -32 52 0
1 32 40 0
1 -31 -35 0
1 -31 -41 0
1 31 -53 0
1 31 -49 0
1 -31 -50 0
1 31 -36 0
1 31 37 0
1 31 -32 0
1 -31 52 0
1 31 40 0
1 5 -54 0
1 -5 -8 0
1 -5 55 0
1 -5 56 0
1 -5 -1 0
1 8 -57 0
1 8 -54 0
1 -8 7 0
1 -8 58 0
1 -8 -55 0
1 -8 56 0
1 -8 5 0
1 15 -57 0
1 -15 54 0
1 -15 59 0
1 15 -16 0
1 -15 56 0
1 -15 -60 0
1 15 61 0
1 -15 9 0
1 15 62 0
1 16 57 0
1 -16 -54 0
1 -16 63 0
1 -16 59 0
1 16 12 0
1 16 55 0
1 -16 -56 0
1 16 -60 0
1 16 61 0
1 -16 15 0
1 -54 -64 0
1 54 -25 0
1 54 65 0
1 54 -26 0
1 -54 -16 0
1 -54 -8 0
1 54 56 0
1 -54 66 0
1 54 -28 0
1 -54 -29 0
1 54 15 0
1 -54 -5 0
1 -56 54 0
1 -56 -64 0
1 -56 25 0
1 -56 26 0
1 -56 16 0
1 56 -8 0
1 -56 28 0
1 -56 -29 0
1 -56 15 0
1 -56 5 0
1 57 67 0
1 -57 64 0
1 -57 -68 0
1 -57 -69 0
1 -57 -16 0
1 57 8 0
1 -57 55 0
1 -57 66 0
1 57 -5 0
1 -55 -57 0
1 -55 64 0
1 55 68 0
1 -55 -69 0
1 55 16 0
1 55 8 0
1 55 -70 0
1 -55 66 0
1 55 71 0
1 55 72 0
1 55 -15 0
1 -55 5 0
1 29 26 0
1 29 2 0
1 -29 -56 0
1 -29 -60 0
1 29 -21 0
1 29 72 0
1 -29 4 0
1 26 -63 0
1 -26 18 0
1 -26 69 0
1 26 2 0
1 -26 -60 0
1 26 61 0
1 26 -29 0
1 26 4 0
1 -28 54 0
1 -28 -25 0
1 28 63 0
1 28 59 0
1 -28 73 0
1 -28 74 0
1 28 -2 0
1 -28 -56 0
1 28 -60 0
1 28 -61 0
1 28 -71 0
1 -28 75 0
1 28 76 0
1 -28 -4 0
1 25 61 0
1 -25 -54 0
1 25 17 0
1 -25 68 0
1 -25 73 0
1 25 74 0
1 -25 -2 0
1 -25 56 0
1 -25 60 0
1 25 -28 0
1 25 75 0
1 25 76 0
1 -25 4 0
1 -59 -77 0
1 59 -61 0
1 59 43 0
1 -59 -24 0
1 -59 25 0
1 -59 26 0
1 -59 78 0
1 -59 16 0
1 -59 79 0
1 -59 44 0
1 59 -23 0
1 -59 28 0
1 -59 29 0
1 -59 15 0
1 61 77 0
1 61 -43 0
1 -61 -24 0
1 -61 -25 0
1 61 26 0
1 61 59 0
1 -61 -16 0
1 -61 -79 0
1 61 44 0
1 61 28 0
1 -61 80 0
1 61 29 0
1 -63 77 0
1 63 -81 0
1 63 -64 0
1 -63 82 0
1 63 16 0
1 -63 -79 0
1 -63 83 0
1 -63 66 0
1 -63 28 0
1 63 -15 0
1 60 77 0
1 60 -81 0
1 -60 -64 0
1 60 63 0
1 -60 26 0
1 -60 -16 0
1 60 79 0
1 60 -83 0
1 60 -66 0
1 60 28 0
1 60 -29 0
1 60 15 0
1 -23 -24 0
1 23 59 0
1 23 3 0
1 23 -13 0
1 -23 38 0
1 -23 61 0
1 23 -75 0
1 23 -76 0
1 23 -4 0
1 23 6 0
1 -24 41 0
1 -24 -64 0
1 -24 59 0
1 -24 -73 0
1 -24 74 0
1 24 -2 0
1 -24 -3 0
1 -24 -23 0
1 24 -61 0
1 24 75 0
1 24 -76 0
1 24 -4 0
1 44 10 0
1 -44 43 0
1 -44 -27 0
1 44 -19 0
1 44 13 0
1 44 -37 0
1 -44 -83 0
1 -44 61 0
1 44 -75 0
1 -44 30 0
1 43 -35 0
1 43 10 0
1 -43 81 0
1 -43 -59 0
1 -43 -74 0
1 43 -27 0
1 -43 19 0
1 43 13 0
1 -43 -61 0
1 -43 76 0
1 43 30 0
1 -74 43 0
1 74 -24 0
1 74 -84 0
1 74 50 0
1 74 -85 0
1 74 36 0
1 -74 -23 0
1 -74 28 0
1 74 76 0
1 74 52 0
1 74 40 0
1 76 43 0
1 -76 24 0
1 76 25 0
1 -76 -74 0
1 -76 84 0
1 -76 -50 0
1 -76 -36 0
1 -76 -44 0
1 76 -28 0
1 76 -86 0
1 76 -52 0
1 -76 -40 0
1 73 77 0
1 -73 -43 0
1 73 -24 0
1 -73 -87 0
1 73 -84 0
1 -73 -88 0
1 73 79 0
1 73 44 0
1 73 23 0
1 -73 -28 0
1 73 75 0
1 -73 -86 0
1 -73 89 0
1 -75 -77 0
1 75 -43 0
1 75 -24 0
1 -75 25 0
1 75 -73 0
1 -75 79 0
1 75 -44 0
1 75 23 0
1 -75 89 0
1 36 -11 0
1 -36 31 0
1 -36 -74 0
1 36 27 0
1 -36 -13 0
1 36 19 0
1 -36 -14 0
1 36 32 0
1 36 76 0
1 36 -30 0
1 36 40 0
1 40 -77 0
1 40 10 0
1 -40 -22 0
1 -40 11 0
1 40 -74 0
1 40 -27 0
1 -40 36 0
1 -40 -13 0
1 40 -14 0
1 40 76 0
1 -40 -30 0
1 50 22 0
1 -50 31 0
1 50 -74 0
1 -50 -88 0
1 50 27 0
1 50 -90 0
1 -50 -39 0
1 -50 32 0
1 50 76 0
1 50 52 0
1 50 -30 0
1 -52 -22 0
1 52 45 0
1 52 -42 0
1 52 -31 0
1 -52 74 0
1 -52 50 0
1 -52 -27 0
1 -52 -19 0
1 52 -90 0
1 -52 39 0
1 -52 -32 0
1 52 30 0
1 52 -89 0
1 19 -22 0
1 -19 91 0
1 19 -50 0
1 19 36 0
1 -19 3 0
1 -19 -92 0
1 -19 -44 0
1 -19 93 0
1 19 52 0
1 -19 40 0
1 22 94 0
1 22 -49 0
1 22 -50 0
1 22 19 0
1 -22 -44 0
1 -22 6 0
1 -22 95 0
1 22 93 0
1 -22 47 0
1 -22 52 0
1 -22 40 0
1 27 96 0
1 -27 -50 0
1 27 -2 0
1 27 -36 0
1 27 -97 0
1 27 95 0
1 27 -98 0
1 -27 -52 0
1 -27 30 0
1 -27 40 0
1 30 84 0
1 30 50 0
1 30 27 0
1 -30 -36 0
1 30 -4 0
1 -30 -86 0
1 -30 52 0
1 -30 -40 0
1 -49 -22 0
1 49 45 0
1 49 -31 0
1 49 42 0
1 -49 34 0
1 49 84 0
1 49 -19 0
1 -49 -90 0
1 49 -39 0
1 -49 33 0
1 47 22 0
1 -47 45 0
1 -47 31 0
1 47 34 0
1 47 49 0
1 47 -19 0
1 47 90 0
1 47 39 0
1 47 -32 0
1 -47 33 0
1 -47 -86 0
1 -91 22 0
1 91 45 0
1 91 -93 0
1 91 48 0
1 -91 19 0
1 -91 -39 0
1 91 -51 0
1 -91 46 0
1 93 22 0
1 93 45 0
1 -93 -42 0
1 93 -48 0
1 93 -91 0
1 93 19 0
1 93 39 0
1 -93 51 0
1 -93 -46 0
1 93 -98 0
1 -39 -99 0
1 39 42 0
1 -39 -100 0
1 -39 91 0
1 -39 -50 0
1 -39 -101 0
1 39 14 0
1 -39 102 0
1 -39 103 0
1 -39 93 0
1 -39 47 0
1 -39 -52 0
1 -42 11 0
1 -42 -99 0
1 42 104 0
1 -42 -100 0
1 -42 -105 0
1 42 91 0
1 42 49 0
1 42 50 0
1 -42 -106 0
1 -42 -39 0
1 42 -103 0
1 42 -47 0
1 42 -52 0
1 -90 45 0
1 90 -99 0
1 90 -107 0
1 -90 96 0
1 90 -49 0
1 -90 50 0
1 90 101 0
1 -90 108 0
1 -90 95 0
1 -90 93 0
1 90 -47 0
1 90 52 0
1 45 -10 0
1 -45 -99 0
1 -45 107 0
1 -45 96 0
1 45 -91 0
1 -45 49 0
1 45 -50 0
1 45 90 0
1 45 109 0
1 45 93 0
1 -45 -47 0
1 -105 -42 0
1 -105 -53 0
1 -105 48 0
1 105 -96 0
1 105 51 0
1 -105 39 0
1 105 103 0
1 -105 46 0
1 -103 -42 0
1 -103 105 0
1 103 48 0
1 103 -39 0
1 -103 51 0
1 103 95 0
1 -103 46 0
1 -100 42 0
1 100 -53 0
1 -100 -107 0
1 100 -48 0
1 100 106 0
1 100 51 0
1 -106 42 0
1 106 100 0
1 106 53 0
1 -106 -48 0
1 -106 39 0
1 106 -109 0
1 106 -51 0
1 -106 -46 0
1 -46 110 0
1 46 -100 0
1 -46 105 0
1 46 48 0
1 -46 -91 0
1 -46 111 0
1 -46 -106 0
1 -46 103 0
1 46 33 0
1 -46 -93 0
1 -48 110 0
1 48 -100 0
1 -48 -34 0
1 -48 -112 0
1 48 91 0
1 48 111 0
1 -48 106 0
1 -48 103 0
1 -48 93 0
1 -48 -46 0
1 51 -110 0
1 -51 -113 0
1 -51 -99 0
1 51 -53 0
1 51 91 0
1 51 -111 0
1 51 114 0
1 -51 -101 0
1 51 -106 0
1 -51 32 0
1 -51 103 0
1 -51 93 0
1 53 -110 0
1 -53 -113 0
1 53 99 0
1 -53 -100 0
1 53 -115 0
1 -53 91 0
1 -53 -114 0
1 53 51 0
1 -53 -106 0
1 53 -103 0
1 -53 -93 0
1 116 -117 0
1 116 118 0
1 116 -58 0
1 -116 119 0
1 -116 120 0
1 116 5 0
1 58 -117 0
1 58 -8 0
1 -58 119 0
1 58 -120 0
1 62 -117 0
1 -62 118 0
1 -62 121 0
1 -62 122 0
1 62 119 0
1 -62 120 0
1 62 -123 0
1 62 -124 0
1 122 -117 0
1 -122 -118 0
1 -122 -121 0
1 122 -16 0
1 -122 125 0
1 -122 -119 0
1 -122 124 0
1 -122 -120 0
1 122 123 0
1 -122 -62 0
1 -120 -68 0
1 -120 118 0
1 120 -122 0
1 -120 71 0
1 120 -126 0
1 -120 -72 0
1 -120 -62 0
1 120 116 0
1 -118 -120 0
1 118 69 0
1 118 122 0
1 118 58 0
1 118 -71 0
1 118 72 0
1 -118 -62 0
1 118 116 0
1 119 117 0
1 -119 -58 0
1 119 62 0
1 117 -127 0
1 -117 122 0
1 117 58 0
1 117 119 0
1 -117 62 0
1 -117 116 0
1 72 57 0
1 -72 -118 0
1 -72 69 0
1 -72 121 0
1 72 -125 0
1 -72 120 0
1 -72 -29 0
1 72 123 0
1 -69 57 0
1 -69 118 0
1 -69 26 0
1 69 121 0
1 -69 125 0
1 69 -123 0
1 -69 -55 0
1 69 120 0
1 69 -72 0
1 -69 124 0
1 71 -57 0
1 -71 -68 0
1 71 -118 0
1 71 -125 0
1 -71 -128 0
1 -71 -129 0
1 -71 55 0
1 71 28 0
1 -71 120 0
1 71 123 0
1 71 -124 0
1 -71 130 0
1 -68 -131 0
1 -68 -57 0
1 -68 120 0
1 -68 -25 0
1 68 -118 0
1 68 125 0
1 -68 -128 0
1 68 -129 0
1 68 -55 0
1 68 71 0
1 -68 124 0
1 68 -130 0
1 124 -132 0
1 -124 81 0
1 124 -64 0
1 124 69 0
1 -124 -122 0
1 -124 -125 0
1 124 133 0
1 124 -83 0
1 -124 -66 0
1 -124 71 0
1 -124 -72 0
1 -124 -62 0
1 -125 -132 0
1 -125 -81 0
1 -125 64 0
1 -125 68 0
1 125 -69 0
1 -125 -122 0
1 -125 133 0
1 125 83 0
1 -125 66 0
1 -125 -124 0
1 125 71 0
1 -125 -72 0
1 -125 62 0
1 123 68 0
1 123 133 0
1 -123 -72 0
1 -123 -134 0
1 -123 -62 0
1 121 132 0
1 -121 -68 0
1 121 -69 0
1 -121 135 0
1 121 122 0
1 -121 123 0
1 121 133 0
1 -121 71 0
1 -121 -62 0
1 -66 -131 0
1 66 -57 0
1 66 54 0
1 66 64 0
1 66 63 0
1 -66 -125 0
1 66 129 0
1 66 55 0
1 -66 60 0
1 66 23 0
1 -66 130 0
1 64 24 0
1 64 -63 0
1 64 -125 0
1 64 128 0
1 64 56 0
1 -64 -60 0
1 64 66 0
1 64 124 0
1 -64 130 0
1 -83 -131 0
1 -83 -81 0
1 83 -67 0
1 83 63 0
1 83 125 0
1 83 -128 0
1 83 129 0
1 -83 70 0
1 83 136 0
1 83 60 0
1 83 -124 0
1 -81 131 0
1 -81 -43 0
1 81 67 0
1 81 65 0
1 81 -63 0
1 81 125 0
1 81 -128 0
1 81 -129 0
1 -81 -70 0
1 81 83 0
1 -81 60 0
1 -81 -136 0
1 -81 -124 0
1 -81 130 0
1 131 77 0
1 131 -137 0
1 131 -81 0
1 -131 64 0
1 131 -68 0
1 131 138 0
1 131 -129 0
1 -131 -83 0
1 131 -66 0
1 -131 71 0
1 -129 77 0
1 129 -131 0
1 -129 81 0
1 129 -64 0
1 129 -138 0
1 -129 -88 0
1 129 -139 0
1 129 83 0
1 129 -66 0
1 129 -71 0
1 129 89 0
1 -130 81 0
1 130 140 0
1 130 -68 0
1 130 141 0
1 -130 -133 0
1 -130 -83 0
1 -130 66 0
1 130 71 0
1 -130 -142 0
1 128 132 0
1 128 64 0
1 128 -68 0
1 128 138 0
1 128 -141 0
1 128 133 0
1 -128 83 0
1 128 -71 0
1 -128 143 0
1 128 -130 0
1 128 -142 0
1 79 -77 0
1 -79 -131 0
1 -79 -67 0
1 -79 -65 0
1 79 63 0
1 -79 59 0
1 79 -73 0
1 -79 129 0
1 79 -133 0
1 -79 70 0
1 79 -61 0
1 79 75 0
1 -77 -131 0
1 77 132 0
1 -77 -65 0
1 77 63 0
1 -77 59 0
1 -77 -129 0
1 -77 79 0
1 77 -70 0
1 77 -60 0
1 -77 -61 0
1 -77 75 0
1 -77 -40 0
1 -88 -67 0
1 88 -65 0
1 -88 -82 0
1 -88 -78 0
1 88 -73 0
1 -88 129 0
1 -88 -141 0
1 88 -136 0
1 -88 -144 0
1 -88 80 0
1 88 75 0
1 88 89 0
1 -89 -67 0
1 -89 65 0
1 89 82 0
1 -89 -73 0
1 -89 88 0
1 89 -129 0
1 -89 -70 0
1 89 136 0
1 -89 144 0
1 -89 80 0
1 89 75 0
1 89 -142 0
1 -65 -77 0
1 65 -81 0
1 65 -54 0
1 65 -145 0
1 -65 -146 0
1 -65 88 0
1 -65 -83 0
1 -65 136 0
1 -65 147 0
1 -65 -98 0
1 65 -86 0
1 -65 89 0
1 -136 -81 0
1 136 65 0
1 136 -146 0
1 136 148 0
1 136 84 0
1 -136 88 0
1 -136 79 0
1 -136 -56 0
1 -136 83 0
1 -136 -149 0
1 136 -98 0
1 -136 -89 0
1 67 77 0
1 -67 57 0
1 -67 -150 0
1 67 88 0
1 67 70 0
1 67 147 0
1 -67 -151 0
1 67 89 0
1 70 -77 0
1 -70 81 0
1 70 67 0
1 70 -146 0
1 -70 150 0
1 70 88 0
1 -70 79 0
1 -70 55 0
1 -70 -83 0
1 70 147 0
1 -70 151 0
1 -70 89 0
1 -84 78 0
1 -84 73 0
1 -84 -74 0
1 -84 27 0
1 84 -144 0
1 84 80 0
1 -84 -76 0
1 84 30 0
1 86 -65 0
1 -86 -73 0
1 -86 76 0
1 -86 -74 0
1 86 84 0
1 -86 27 0
1 -86 -136 0
1 86 -144 0
1 -86 -80 0
1 86 75 0
1 -86 -47 0
1 -86 30 0
1 -148 152 0
1 148 82 0
1 148 -78 0
1 -148 -150 0
1 -148 -85 0
1 -148 -27 0
1 -148 -136 0
1 148 144 0
1 148 80 0
1 148 -98 0
1 148 -153 0
1 148 30 0
1 98 -65 0
1 -98 82 0
1 98 78 0
1 -98 148 0
1 -98 87 0
1 -98 -85 0
1 98 -27 0
1 98 -136 0
1 98 144 0
1 98 -80 0
1 98 -93 0
1 98 -151 0
1 -98 153 0
1 -98 -30 0
1 -78 -154 0
1 -78 -107 0
1 -78 -96 0
1 78 155 0
1 78 -148 0
1 78 -84 0
1 78 -88 0
1 78 -156 0
1 -78 -109 0
1 -78 -95 0
1 -78 86 0
1 -80 -154 0
1 80 -107 0
1 80 -96 0
1 80 78 0
1 80 -88 0
1 80 -109 0
1 80 61 0
1 80 157 0
1 -80 86 0
1 -80 89 0
1 82 -63 0
1 82 -158 0
1 82 -159 0
1 82 -146 0
1 82 -148 0
1 82 88 0
1 82 -156 0
1 82 144 0
1 82 147 0
1 82 -98 0
1 -82 -86 0
1 144 154 0
1 144 -160 0
1 144 82 0
1 144 158 0
1 144 -146 0
1 -144 -148 0
1 -144 -84 0
1 144 -60 0
1 -144 161 0
1 144 -86 0
1 -144 -89 0
1 96 45 0
1 96 105 0
1 96 78 0
1 96 -146 0
1 -96 -87 0
1 96 -85 0
1 96 -27 0
1 -96 -19 0
1 -96 -95 0
1 96 -153 0
1 96 -30 0
1 -95 22 0
1 95 -45 0
1 -95 96 0
1 -95 -78 0
1 95 87 0
1 -95 -85 0
1 -95 27 0
1 -95 19 0
1 -95 90 0
1 95 80 0
1 95 -147 0
1 95 -152 0
1 95 -153 0
1 95 -30 0
1 107 -94 0
1 -107 -100 0
1 -107 158 0
1 107 78 0
1 -107 87 0
1 107 -85 0
1 -107 -97 0
1 -107 92 0
1 107 90 0
1 107 -109 0
1 107 -80 0
1 -107 -152 0
1 107 -153 0
1 -107 162 0
1 109 94 0
1 109 -45 0
1 109 107 0
1 109 78 0
1 -109 -87 0
1 109 85 0
1 109 97 0
1 -109 -92 0
1 -109 90 0
1 -109 106 0
1 109 -80 0
1 -109 -152 0
1 109 153 0
1 109 -162 0
1 85 163 0
1 -85 113 0
1 85 99 0
1 -85 -107 0
1 85 96 0
1 85 -148 0
1 -85 -74 0
1 85 164 0
1 85 114 0
1 -85 -101 0
1 85 109 0
1 -85 98 0
1 -85 -153 0
1 153 -163 0
1 -153 113 0
1 153 -99 0
1 -153 107 0
1 153 96 0
1 153 -148 0
1 -153 85 0
1 -153 -114 0
1 153 -101 0
1 153 -95 0
1 -153 -76 0
1 153 165 0
1 87 163 0
1 -87 -166 0
1 -87 154 0
1 -87 96 0
1 -87 -73 0
1 -87 148 0
1 -87 167 0
1 -87 -164 0
1 87 168 0
1 87 -156 0
1 -87 -109 0
1 -87 95 0
1 -152 163 0
1 152 -166 0
1 -152 154 0
1 -152 -107 0
1 -152 -96 0
1 152 -148 0
1 -152 -164 0
1 152 168 0
1 152 156 0
1 -152 -109 0
1 -152 75 0
1 -152 98 0
1 152 -169 0
1 -99 -94 0
1 -99 45 0
1 -99 -53 0
1 -99 -85 0
1 99 97 0
1 99 92 0
1 -99 -101 0
1 99 -90 0
1 99 -39 0
1 -99 -51 0
1 99 -153 0
1 -99 162 0
1 101 -94 0
1 101 -45 0
1 -101 -99 0
1 101 -42 0
1 -101 -53 0
1 101 85 0
1 101 97 0
1 -101 -92 0
1 -101 -156 0
1 101 39 0
1 -101 51 0
1 101 153 0
1 -101 162 0
1 113 -94 0
1 113 166 0
1 113 -170 0
1 113 104 0
1 113 53 0
1 -113 -85 0
1 113 -97 0
1 113 114 0
1 113 92 0
1 -113 -108 0
1 -113 -102 0
1 113 162 0
1 114 94 0
1 114 -170 0
1 -114 104 0
1 114 -53 0
1 114 85 0
1 114 97 0
1 114 168 0
1 -114 -92 0
1 -114 -108 0
1 -114 102 0
1 114 51 0
1 114 -153 0
1 -114 162 0
1 92 -110 0
1 -92 94 0
1 -92 113 0
1 92 99 0
1 -92 -107 0
1 92 171 0
1 92 -172 0
1 -92 19 0
1 -92 101 0
1 -92 -173 0
1 94 22 0
1 -94 -113 0
1 -94 -99 0
1 94 -107 0
1 94 -171 0
1 -94 -172 0
1 -94 -111 0
1 94 -114 0
1 -94 -92 0
1 -94 -101 0
1 -94 -109 0
1 94 174 0
1 94 173 0
1 97 113 0
1 97 107 0
1 97 -171 0
1 97 -175 0
1 97 27 0
1 -97 164 0
1 -97 114 0
1 97 101 0
1 97 109 0
1 97 174 0
1 97 -162 0
1 -162 -163 0
1 -162 -113 0
1 -162 107 0
1 -162 171 0
1 162 101 0
1 -162 109 0
1 162 174 0
1 -162 30 0
1 110 163 0
1 110 94 0
1 -110 -170 0
1 110 104 0
1 -110 -48 0
1 -110 -111 0
1 110 92 0
1 -110 46 0
1 111 -110 0
1 111 94 0
1 111 170 0
1 111 -53 0
1 -111 -48 0
1 111 -164 0
1 -111 92 0
1 -111 108 0
1 -111 102 0
1 -111 51 0
1 111 46 0
1 -173 -94 0
1 -173 170 0
1 173 104 0
1 173 -115 0
1 173 112 0
1 -173 172 0
1 -173 92 0
1 -173 -108 0
1 173 102 0
1 -173 176 0
1 -172 94 0
1 172 -170 0
1 172 104 0
1 172 -175 0
1 -172 92 0
1 172 -108 0
1 172 -102 0
1 -172 -176 0
1 -172 177 0
1 172 -173 0
1 -102 178 0
1 -102 -179 0
1 -102 114 0
1 -102 39 0
1 102 173 0
1 -104 110 0
1 104 -113 0
1 -104 -42 0
1 -104 -178 0
1 -104 -179 0
1 -104 172 0
1 -104 111 0
1 104 114 0
1 104 102 0
1 104 -173 0
1 108 110 0
1 -108 113 0
1 108 -170 0
1 108 -180 0
1 -108 -171 0
1 108 -172 0
1 -108 -111 0
1 108 -90 0
1 -108 -181 0
1 -108 173 0
1 -170 45 0
1 170 180 0
1 170 171 0
1 170 172 0
1 -170 111 0
1 170 114 0
1 170 -108 0
1 170 181 0
1 -170 -174 0
1 170 -173 0
1 182 104 0
1 182 115 0
1 -182 -112 0
1 -182 -179 0
1 -182 102 0
1 -182 -177 0
1 182 -174 0
1 179 104 0
1 179 -171 0
1 -179 -102 0
1 -179 176 0
1 179 177 0
1 -179 182 0
1 183 115 0
1 183 -178 0
1 183 112 0
1 183 102 0
1 183 -176 0
1 -183 177 0
1 183 181 0
1 -178 -115 0
1 -178 112 0
1 178 102 0
1 -178 176 0
1 178 183 0
1 177 -178 0
1 -177 -112 0
1 -177 179 0
1 -177 -172 0
1 -177 183 0
1 177 182 0
1 -177 -173 0
1 112 -177 0
1 112 -48 0
1 -112 178 0
1 -112 179 0
1 112 -172 0
1 112 -183 0
1 112 -182 0
1 112 173 0
1 176 179 0
1 176 172 0
1 -176 -183 0
1 -176 -182 0
1 -115 53 0
1 115 -178 0
1 -115 -179 0
1 -115 172 0
1 115 -176 0
1 -115 -183 0
1 115 182 0
1 -133 -132 0
1 -133 127 0
1 -133 -184 0
1 133 121 0
1 133 -125 0
1 -133 128 0
1 -133 -126 0
1 -133 -123 0
1 133 -124 0
1 -133 -130 0
1 -132 -77 0
1 132 -127 0
1 132 -184 0
1 -132 -121 0
1 -132 -128 0
1 132 133 0
1 -132 185 0
1 -132 -126 0
1 132 -123 0
1 -132 124 0
1 132 -130 0
1 -141 127 0
1 -141 -184 0
1 -141 -135 0
1 141 186 0
1 -141 128 0
1 -141 88 0
1 -141 185 0
1 141 -126 0
1 141 -187 0
1 -141 130 0
1 -141 -142 0
1 142 -184 0
1 -142 135 0
1 142 -186 0
1 -142 128 0
1 -142 185 0
1 -142 134 0
1 -142 -187 0
1 -142 -130 0
1 -126 -132 0
1 126 -184 0
1 -126 150 0
1 126 138 0
1 -126 -188 0
1 -126 141 0
1 126 133 0
1 -126 -120 0
1 -126 -151 0
1 126 -142 0
1 -184 132 0
1 184 -189 0
1 -184 -150 0
1 184 141 0
1 -184 -126 0
1 -184 -151 0
1 184 143 0
1 184 142 0
1 -185 -132 0
1 -185 -127 0
1 -185 -141 0
1 185 119 0
1 185 -190 0
1 185 -142 0
1 -127 -132 0
1 127 117 0
1 -127 -191 0
1 -127 -185 0
1 127 142 0
1 -138 -131 0
1 138 184 0
1 -138 -135 0
1 138 -186 0
1 138 -84 0
1 138 128 0
1 138 -129 0
1 138 -70 0
1 138 126 0
1 138 -134 0
1 -138 143 0
1 -143 131 0
1 143 -130 0
1 143 67 0
1 -143 135 0
1 143 186 0
1 143 -138 0
1 -143 -129 0
1 143 70 0
1 143 -126 0
1 -143 -134 0
1 143 -86 0
1 -143 187 0
1 150 -137 0
1 150 67 0
1 150 135 0
1 150 -148 0
1 150 -186 0
1 -150 -192 0
1 150 139 0
1 -150 -70 0
1 150 -134 0
1 -150 126 0
1 -150 -151 0
1 -150 187 0
1 -150 -140 0
1 -151 -137 0
1 151 67 0
1 151 184 0
1 151 135 0
1 151 150 0
1 151 -186 0
1 151 192 0
1 -151 139 0
1 -151 -126 0
1 -151 98 0
1 -151 187 0
1 151 140 0
1 -187 193 0
1 -187 -158 0
1 -187 -146 0
1 187 -150 0
1 -187 186 0
1 187 138 0
1 187 -141 0
1 187 -194 0
1 187 -161 0
1 -187 -147 0
1 -187 -151 0
1 -187 -124 0
1 -187 143 0
1 -187 142 0
1 -186 193 0
1 186 158 0
1 -186 -146 0
1 -186 -125 0
1 186 -150 0
1 -186 -195 0
1 186 -138 0
1 186 141 0
1 186 161 0
1 -186 147 0
1 -186 -151 0
1 186 187 0
1 -186 142 0
1 134 193 0
1 134 135 0
1 -134 150 0
1 134 138 0
1 -134 -141 0
1 134 194 0
1 -134 -151 0
1 -134 -196 0
1 134 -143 0
1 -134 -142 0
1 135 -193 0
1 135 121 0
1 -135 -150 0
1 135 -197 0
1 -135 -138 0
1 135 141 0
1 135 134 0
1 135 -194 0
1 -135 -151 0
1 135 143 0
1 135 -142 0
1 -146 137 0
1 -146 67 0
1 146 65 0
1 146 82 0
1 -146 -192 0
1 146 -139 0
1 146 70 0
1 -146 147 0
1 -146 187 0
1 -146 -140 0
1 -147 137 0
1 -147 65 0
1 -147 -146 0
1 -147 -186 0
1 -147 192 0
1 -147 139 0
1 -147 -70 0
1 -147 144 0
1 -147 -95 0
1 -147 187 0
1 147 -140 0
1 -158 -137 0
1 -158 198 0
1 158 145 0
1 158 82 0
1 -158 107 0
1 158 186 0
1 158 -192 0
1 158 -139 0
1 158 -199 0
1 158 -144 0
1 -158 -140 0
1 161 -137 0
1 -161 198 0
1 161 -145 0
1 161 -82 0
1 161 158 0
1 -161 -186 0
1 -161 -192 0
1 161 -139 0
1 -161 -199 0
1 161 -149 0
1 -161 144 0
1 161 -109 0
1 161 187 0
1 -161 -140 0
1 137 131 0
1 -137 -166 0
1 -137 200 0
1 137 150 0
1 -137 -139 0
1 137 201 0
1 -137 -168 0
1 -137 -156 0
1 -137 -161 0
1 -137 147 0
1 -137 151 0
1 -139 137 0
1 139 -202 0
1 139 158 0
1 139 150 0
1 -139 -201 0
1 139 168 0
1 -139 -156 0
1 -139 161 0
1 -139 147 0
1 139 151 0
1 140 203 0
1 140 -202 0
1 -140 -204 0
1 -140 -193 0
1 140 146 0
1 -140 -150 0
1 -140 -192 0
1 140 201 0
1 -140 -205 0
1 -140 194 0
1 140 147 0
1 -140 -151 0
1 140 130 0
1 192 202 0
1 -192 -204 0
1 -192 -193 0
1 -192 -158 0
1 -192 146 0
1 192 206 0
1 -192 201 0
1 -192 194 0
1 192 -161 0
1 192 -147 0
1 -192 151 0
1 -192 140 0
1 154 137 0
1 -154 99 0
1 154 193 0
1 -154 -82 0
1 154 -145 0
1 -154 -78 0
1 154 87 0
1 154 -139 0
1 -154 -199 0
1 -154 156 0
1 154 149 0
1 154 144 0
1 -154 152 0
1 156 -137 0
1 156 198 0
1 156 -145 0
1 156 82 0
1 156 -78 0
1 -156 -87 0
1 156 139 0
1 156 101 0
1 -156 199 0
1 -156 194 0
1 156 -144 0
1 -156 149 0
1 -156 80 0
1 156 -152 0
1 -166 137 0
1 166 -113 0
1 -166 -204 0
1 166 -198 0
1 166 -145 0
1 -166 159 0
1 -166 -155 0
1 166 -199 0
1 166 149 0
1 166 -160 0
1 166 -152 0
1 -168 137 0
1 -168 -198 0
1 168 -145 0
1 168 -159 0
1 -168 155 0
1 168 -87 0
1 -168 -139 0
1 168 -205 0
1 -168 199 0
1 168 -149 0
1 168 -160 0
1 168 -152 0
1 145 -163 0
1 145 -166 0
1 -145 65 0
1 145 -207 0
1 -145 -175 0
1 145 -164 0
1 -145 -168 0
1 145 156 0
1 145 149 0
1 -145 161 0
1 145 208 0
1 -149 163 0
1 -149 -166 0
1 -149 -154 0
1 149 -145 0
1 -149 -158 0
1 -149 -207 0
1 149 -175 0
1 149 164 0
1 149 168 0
1 149 -156 0
1 149 -136 0
1 -149 -161 0
1 149 -208 0
1 198 209 0
1 -198 202 0
1 198 -166 0
1 198 67 0
1 -198 -154 0
1 198 158 0
1 198 210 0
1 -198 199 0
1 -198 161 0
1 199 209 0
1 199 -166 0
1 -199 -198 0
1 199 -154 0
1 -199 -158 0
1 -199 -207 0
1 -199 -201 0
1 199 -168 0
1 199 -70 0
1 199 -156 0
1 199 -161 0
1 -163 110 0
1 163 -145 0
1 -163 159 0
1 163 155 0
1 -163 -87 0
1 -163 85 0
1 163 164 0
1 163 97 0
1 163 -149 0
1 -163 -160 0
1 -163 152 0
1 -163 153 0
1 -163 -162 0
1 -164 -163 0
1 164 -87 0
1 -164 -85 0
1 164 111 0
1 164 149 0
1 -164 -160 0
1 164 -157 0
1 164 -152 0
1 164 153 0
1 164 162 0
1 208 -209 0
1 208 -145 0
1 208 -155 0
1 208 167 0
1 208 175 0
1 -208 -211 0
1 208 -149 0
1 208 -157 0
1 208 169 0
1 208 -165 0
1 208 -162 0
1 -175 155 0
1 -175 167 0
1 175 172 0
1 175 211 0
1 -175 -97 0
1 -175 149 0
1 175 -160 0
1 175 -157 0
1 -175 169 0
1 -175 165 0
1 -175 -162 0
1 -155 163 0
1 -155 -166 0
1 155 157 0
1 -155 -78 0
1 155 -171 0
1 -155 -175 0
1 155 -164 0
1 -155 168 0
1 155 181 0
1 155 174 0
1 155 -208 0
1 -157 -163 0
1 157 166 0
1 -157 -180 0
1 157 155 0
1 157 171 0
1 -157 -175 0
1 -157 -164 0
1 157 -168 0
1 -157 80 0
1 157 181 0
1 157 174 0
1 157 -208 0
1 -159 -163 0
1 159 166 0
1 -159 212 0
1 159 207 0
1 159 -175 0
1 -159 -164 0
1 159 168 0
1 -159 160 0
1 159 213 0
1 160 -166 0
1 -160 -159 0
1 160 -212 0
1 -160 207 0
1 160 -175 0
1 160 -164 0
1 160 -168 0
1 160 -144 0
1 160 -208 0
1 174 94 0
1 -174 170 0
1 -174 -155 0
1 -174 -171 0
1 174 -167 0
1 174 -211 0
1 174 -97 0
1 -174 92 0
1 174 -108 0
1 174 -157 0
1 174 169 0
1 174 -182 0
1 -174 165 0
1 174 162 0
1 171 170 0
1 171 155 0
1 171 179 0
1 -171 -207 0
1 171 211 0
1 -171 97 0
1 171 -92 0
1 171 -108 0
1 -171 -165 0
1 171 -157 0
1 171 -169 0
1 -171 -174 0
1 171 -162 0
1 -181 -170 0
1 -181 -180 0
1 181 155 0
1 -181 167 0
1 -181 211 0
1 181 -108 0
1 -181 157 0
1 -181 183 0
1 181 169 0
1 -181 213 0
1 -181 -165 0
1 180 170 0
1 180 155 0
1 -180 169 0
1 -180 -211 0
1 180 -108 0
1 180 157 0
1 180 -165 0
1 -211 180 0
1 -211 171 0
1 211 -85 0
1 -211 175 0
1 -211 -165 0
1 -211 181 0
1 165 -171 0
1 165 175 0
1 -165 -211 0
1 -165 153 0
1 165 174 0
1 -165 208 0
1 167 -180 0
1 167 87 0
1 -167 -171 0
1 167 175 0
1 -167 169 0
1 -167 -181 0
1 167 -174 0
1 -167 208 0
1 169 -180 0
1 169 171 0
1 -169 -152 0
1 -169 181 0
1 -169 -174 0
1 169 -208 0
1 193 154 0
1 193 191 0
1 193 135 0
1 -193 -186 0
1 -193 194 0
1 -193 -190 0
1 -193 188 0
1 -193 -134 0
1 -193 -187 0
1 -193 140 0
1 -194 -191 0
1 -194 189 0
1 194 -135 0
1 -194 186 0
1 -194 156 0
1 194 -190 0
1 194 -188 0
1 194 134 0
1 -194 187 0
1 194 -140 0
1 -204 -166 0
1 -204 -191 0
1 204 189 0
1 204 -195 0
1 204 192 0
1 204 205 0
1 -204 190 0
1 -204 196 0
1 204 -214 0
1 204 -140 0
1 -205 -204 0
1 205 191 0
1 -205 189 0
1 -205 -197 0
1 205 -195 0
1 205 192 0
1 205 -190 0
1 205 196 0
1 -205 214 0
1 -188 209 0
1 188 -202 0
1 188 -204 0
1 188 193 0
1 188 -189 0
1 -188 210 0
1 188 205 0
1 -188 194 0
1 -188 -126 0
1 189 202 0
1 -189 -204 0
1 189 -184 0
1 189 210 0
1 -189 201 0
1 -189 -205 0
1 189 -194 0
1 -189 188 0
1 190 193 0
1 190 191 0
1 -190 -194 0
1 -190 185 0
1 -191 204 0
1 191 193 0
1 -191 190 0
1 -191 -127 0
1 -191 205 0
1 -202 198 0
1 -202 197 0
1 202 -195 0
1 202 192 0
1 202 -139 0
1 202 201 0
1 202 -199 0
1 202 188 0
1 202 196 0
1 202 140 0
1 -201 -137 0
1 201 189 0
1 -201 -197 0
1 -201 195 0
1 -201 192 0
1 201 139 0
1 -201 -188 0
1 201 -214 0
1 209 -203 0
1 -209 200 0
1 -209 -198 0
1 -209 189 0
1 209 195 0
1 -209 210 0
1 -209 206 0
1 209 -215 0
1 209 -199 0
1 209 196 0
1 -209 -214 0
1 210 209 0
1 -210 203 0
1 -210 200 0
1 210 -198 0
1 210 -189 0
1 210 -197 0
1 210 -175 0
1 210 206 0
1 210 -215 0
1 210 188 0
1 210 -196 0
1 210 -214 0
1 -214 209 0
1 -214 -202 0
1 214 -204 0
1 -214 -212 0
1 -214 -207 0
1 -214 -210 0
1 214 -201 0
1 214 205 0
1 -214 -213 0
1 195 -209 0
1 195 -202 0
1 195 204 0
1 -195 212 0
1 -195 -186 0
1 -195 210 0
1 -195 -201 0
1 195 205 0
1 196 -209 0
1 -196 202 0
1 -196 -204 0
1 -196 -210 0
1 -196 -205 0
1 -196 -134 0
1 197 135 0
1 -197 -210 0
1 197 201 0
1 197 205 0
1 -197 -196 0
1 -207 203 0
1 207 -200 0
1 -207 145 0
1 -207 -171 0
1 -207 -195 0
1 -207 206 0
1 -207 -215 0
1 207 -149 0
1 207 -160 0
1 -213 203 0
1 213 -200 0
1 -213 159 0
1 -213 212 0
1 -213 195 0
1 213 -206 0
1 213 215 0
1 213 160 0
1 213 -181 0
1 213 -214 0
1 -212 203 0
1 212 -200 0
1 -212 -159 0
1 212 -195 0
1 212 206 0
1 212 215 0
1 -212 -160 0
1 212 213 0
1 -212 -214 0
1 -200 209 0
1 200 -137 0
1 -200 -207 0
1 200 -210 0
1 200 215 0
1 200 -213 0
1 215 209 0
1 -215 200 0
1 215 -212 0
1 -215 -207 0
1 215 -210 0
1 215 139 0
1 215 -213 0
1 -203 -207 0
1 203 210 0
1 203 -213 0
1 203 -140 0
1 -206 -209 0
1 206 -203 0
1 -206 212 0
1 -206 -207 0
1 -206 192 0
1 -206 -210 0
1 206 213 0
